c FILE /home/rafael/Documents/HappySet/MIHS/inputs/happygen/output/graph_scale_free_k10_p0.2_v50_20241127_082512.txt
c SOURCE This is a scale-free graph formed for the happy graph colouring problem.
c DESCRIPTION It was generated using the problem generator of Rhyd Lewis
c
c GRAPH STATS
c Seed                             = 701556875
c Number of Nodes                  = 50
c Number of colours k              = 10
c Number of pre-assignments        = 10
c Number of links per new node     = 5
c Density                          = 0.191837
c 
c The degrees of nodes 1 to 50, respectively, are as follows 
c [24, 23, 21, 20, 19, 16, 15, 15, 15, 13, 12, 12, 12, 12, 9, 9, 9, 9, 8, 8, 8, 8, 8, 8, 8, 8, 
c  7, 7, 7, 7, 7, 7, 6, 6, 6, 6, 6, 6, 6, 6, 6, 5, 5, 5, 5, 5, 5, 5, 5, 5] 
c  
p edge 50 235 10
e 1 2
e 1 3
e 1 4
e 1 5
e 1 6
e 1 7
e 1 8
e 1 10
e 1 11
e 1 13
e 1 16
e 1 17
e 1 19
e 1 22
e 1 24
e 1 27
e 1 29
e 1 30
e 1 31
e 1 33
e 1 34
e 1 35
e 1 37
e 1 43
e 2 3
e 2 4
e 2 5
e 2 6
e 2 7
e 2 8
e 2 9
e 2 10
e 2 11
e 2 12
e 2 13
e 2 14
e 2 19
e 2 20
e 2 28
e 2 32
e 2 33
e 2 37
e 2 41
e 2 42
e 2 46
e 2 49
e 3 4
e 3 5
e 3 7
e 3 8
e 3 9
e 3 12
e 3 14
e 3 16
e 3 17
e 3 21
e 3 22
e 3 26
e 3 27
e 3 29
e 3 37
e 3 40
e 3 42
e 3 43
e 3 50
e 4 5
e 4 7
e 4 8
e 4 9
e 4 11
e 4 12
e 4 13
e 4 19
e 4 23
e 4 24
e 4 26
e 4 28
e 4 31
e 4 34
e 4 36
e 4 42
e 4 43
e 5 11
e 5 14
e 5 16
e 5 17
e 5 18
e 5 19
e 5 22
e 5 26
e 5 27
e 5 28
e 5 29
e 5 33
e 5 37
e 5 41
e 5 44
e 6 7
e 6 8
e 6 10
e 6 11
e 6 14
e 6 15
e 6 20
e 6 23
e 6 24
e 6 30
e 6 34
e 6 36
e 6 38
e 6 44
e 7 8
e 7 9
e 7 11
e 7 15
e 7 20
e 7 21
e 7 24
e 7 28
e 7 40
e 7 46
e 8 9
e 8 12
e 8 13
e 8 16
e 8 20
e 8 27
e 8 30
e 8 35
e 8 40
e 9 10
e 9 11
e 9 12
e 9 13
e 9 14
e 9 20
e 9 21
e 9 22
e 9 31
e 9 32
e 10 13
e 10 17
e 10 18
e 10 23
e 10 25
e 10 26
e 10 32
e 10 34
e 10 41
e 11 17
e 11 21
e 11 22
e 11 38
e 11 49
e 12 15
e 12 19
e 12 27
e 12 28
e 12 31
e 12 36
e 12 48
e 13 15
e 13 25
e 13 35
e 13 42
e 13 45
e 13 47
e 14 16
e 14 23
e 14 24
e 14 25
e 14 30
e 14 32
e 14 50
e 15 27
e 15 33
e 15 37
e 15 43
e 15 47
e 16 18
e 16 30
e 16 35
e 16 39
e 17 32
e 17 42
e 17 45
e 17 50
e 18 25
e 18 27
e 18 29
e 18 38
e 18 39
e 18 41
e 19 21
e 19 44
e 19 48
e 20 23
e 20 29
e 20 44
e 21 39
e 21 41
e 21 48
e 22 35
e 22 45
e 22 47
e 23 34
e 23 36
e 23 38
e 24 29
e 24 38
e 24 43
e 25 26
e 25 36
e 25 48
e 25 49
e 26 45
e 26 47
e 26 50
e 28 31
e 28 33
e 29 40
e 30 36
e 30 45
e 31 44
e 31 46
e 32 46
e 32 49
e 33 39
e 34 39
e 35 47
e 37 46
e 38 40
e 39 49
e 40 48
e 41 50
n 8 8
n 22 10
n 24 6
n 25 1
n 32 3
n 33 9
n 34 4
n 37 7
n 41 2
n 44 5
